solution/p_3_5.txt_600.col.log
CPXPARAM_TimeLimit                               600
CPXPARAM_WorkMem                                 4096
CPXPARAM_Threads                                 1
Found incumbent of value 0,000000 after 0,00 sec. (0,00 ticks)
Tried aggregator 1 time.
MIP Presolve eliminated 6 rows and 41 columns.
MIP Presolve modified 11 coefficients.
Reduced MIP has 12 rows, 28 columns, and 50 nonzeros.
Reduced MIP has 28 binaries, 0 generals, 0 SOSs, and 0 indicators.
Presolve time = 0,00 sec. (0,12 ticks)
Probing time = 0,00 sec. (0,01 ticks)
Tried aggregator 1 time.
MIP Presolve eliminated 7 rows and 18 columns.
Reduced MIP has 5 rows, 10 columns, and 19 nonzeros.
Reduced MIP has 10 binaries, 0 generals, 0 SOSs, and 0 indicators.
Presolve time = 0,00 sec. (0,02 ticks)
Probing time = 0,00 sec. (0,01 ticks)
Tried aggregator 1 time.
Reduced MIP has 5 rows, 10 columns, and 19 nonzeros.
Reduced MIP has 10 binaries, 0 generals, 0 SOSs, and 0 indicators.
Presolve time = 0,00 sec. (0,02 ticks)
Probing time = 0,00 sec. (0,01 ticks)
Clique table members: 5.
MIP emphasis: balance optimality and feasibility.
MIP search method: dynamic search.
Parallel mode: none, using 1 thread.
Root relaxation solution time = 0,00 sec. (0,01 ticks)

        Nodes                                         Cuts/
   Node  Left     Objective  IInf  Best Integer    Best Bound    ItCnt     Gap

*     0+    0                          107,0000      255,0000           138,32%
      0     0      155,6667     1      107,0000      155,6667        3   45,48%
*     0+    0                          155,0000      155,6667             0,43%
      0     0        cutoff            155,0000      155,6667        3    0,43%
Elapsed time = 0,00 sec. (2,24 ticks, tree = 0,01 MB, solutions = 3)

Root node processing (before b&c):
  Real time             =    0,00 sec. (2,24 ticks)
Sequential b&c:
  Real time             =    0,00 sec. (0,00 ticks)
                          ------------
Total (root+branch&cut) =    0,00 sec. (2,24 ticks)
